Academic license - for non-commercial use only
Changed value of parameter TimeLimit to 600.0
   Prev: 1e+100  Min: 0.0  Max: 1e+100  Default: 1e+100
Optimize a model with 2004 rows, 1005006 columns and 2009010 nonzeros
Variable types: 0 continuous, 1005006 integer (1005006 binary)
Coefficient statistics:
  Matrix range     [1e+00, 7e+04]
  Objective range  [1e+00, 1e+00]
  Bounds range     [1e+00, 1e+00]
  RHS range        [1e+00, 1e+00]
Found heuristic solution: objective 690.0000000
Presolve time: 3.55s
Presolved: 2004 rows, 1005006 columns, 2009010 nonzeros
Variable types: 0 continuous, 1005006 integer (1005006 binary)

Root simplex log...

Iteration    Objective       Primal Inf.    Dual Inf.      Time
     651    6.2728215e-04   2.314458e+05   0.000000e+00      5s
    4861    3.3200000e+02   0.000000e+00   0.000000e+00      9s

Root relaxation: objective 3.320000e+02, 4861 iterations, 5.20 seconds
Total elapsed time = 34.06s
Total elapsed time = 36.26s
Total elapsed time = 58.27s
Total elapsed time = 86.35s

    Nodes    |    Current Node    |     Objective Bounds      |     Work
 Expl Unexpl |  Obj  Depth IntInf | Incumbent    BestBd   Gap | It/Node Time

     0     0  332.00000    0  477  690.00000  332.00000  51.9%     -  111s
H    0     0                     423.0000000  332.00000  21.5%     -  112s
H    0     0                     370.0000000  332.00000  10.3%     -  113s
H    0     0                     346.0000000  332.00000  4.05%     -  157s
     0     0  332.00000    0  662  346.00000  332.00000  4.05%     -  161s
     0     0  332.00000    0  723  346.00000  332.00000  4.05%     -  177s
     0     0  332.00000    0  501  346.00000  332.00000  4.05%     -  234s
     0     0  332.00000    0  497  346.00000  332.00000  4.05%     -  260s
H    0     0                     342.0000000  332.00000  2.92%     -  272s
     0     2  332.00000    0  466  342.00000  332.00000  2.92%     -  527s
     1     4  332.00000    1  473  342.00000  332.00000  2.92% 44904  530s
     3     8  332.00000    2  632  342.00000  332.00000  2.92% 15290  551s
     7    14  332.00000    3  698  342.00000  332.00000  2.92%  7187  594s

Cutting planes:
  Cover: 552
  Clique: 96
  MIR: 167
  StrongCG: 150

Explored 13 nodes (176659 simplex iterations) in 600.15 seconds
Thread count was 12 (of 12 available processors)

Solution count 5: 342 346 370 ... 690

Time limit reached
Best objective 3.420000000000e+02, best bound 3.320000000000e+02, gap 2.9240%
y[0]
y[1]
y[2]
y[3]
y[4]
y[5]
y[6]
y[7]
y[8]
y[9]
y[10]
y[11]
y[12]
y[13]
y[17]
y[18]
y[25]
y[27]
y[28]
y[31]
y[36]
y[39]
y[42]
y[45]
y[52]
y[53]
y[54]
y[55]
y[58]
y[62]
y[66]
y[69]
y[70]
y[76]
y[77]
y[79]
y[81]
y[83]
y[84]
y[86]
y[89]
y[90]
y[99]
y[102]
y[109]
y[112]
y[119]
y[125]
y[128]
y[134]
y[137]
y[143]
y[145]
y[148]
y[150]
y[153]
y[155]
y[158]
y[159]
y[166]
y[167]
y[170]
y[174]
y[175]
y[176]
y[180]
y[184]
y[185]
y[186]
y[188]
y[191]
y[193]
y[194]
y[195]
y[196]
y[198]
y[200]
y[204]
y[206]
y[209]
y[211]
y[214]
y[215]
y[220]
y[221]
y[223]
y[229]
y[231]
y[232]
y[239]
y[240]
y[243]
y[244]
y[245]
y[248]
y[249]
y[250]
y[252]
y[253]
y[257]
y[258]
y[260]
y[261]
y[264]
y[265]
y[281]
y[282]
y[284]
y[285]
y[286]
y[287]
y[288]
y[289]
y[298]
y[301]
y[302]
y[304]
y[310]
y[312]
y[316]
y[317]
y[323]
y[324]
y[325]
y[326]
y[327]
y[332]
y[333]
y[335]
y[339]
y[341]
y[342]
y[345]
y[346]
y[348]
y[350]
y[356]
y[358]
y[360]
y[365]
y[369]
y[370]
y[373]
y[376]
y[380]
y[383]
y[384]
y[387]
y[390]
y[391]
y[393]
y[396]
y[398]
y[403]
y[406]
y[407]
y[413]
y[416]
y[418]
y[421]
y[428]
y[431]
y[432]
y[435]
y[438]
y[443]
y[453]
y[456]
y[466]
y[467]
y[468]
y[469]
y[470]
y[473]
y[479]
y[481]
y[482]
y[489]
y[494]
y[498]
y[502]
y[504]
y[505]
y[509]
y[513]
y[514]
y[516]
y[523]
y[525]
y[526]
y[529]
y[530]
y[532]
y[540]
y[553]
y[556]
y[557]
y[558]
y[562]
y[563]
y[567]
y[570]
y[576]
y[579]
y[584]
y[585]
y[588]
y[590]
y[593]
y[595]
y[605]
y[610]
y[613]
y[615]
y[619]
y[625]
y[626]
y[628]
y[631]
y[633]
y[636]
y[637]
y[638]
y[639]
y[642]
y[644]
y[646]
y[649]
y[652]
y[653]
y[655]
y[656]
y[671]
y[672]
y[673]
y[675]
y[676]
y[677]
y[678]
y[679]
y[680]
y[682]
y[685]
y[686]
y[687]
y[688]
y[689]
y[692]
y[693]
y[695]
y[697]
y[708]
y[713]
y[714]
y[724]
y[726]
y[730]
y[732]
y[738]
y[739]
y[742]
y[745]
y[750]
y[751]
y[752]
y[754]
y[755]
y[756]
y[760]
y[765]
y[767]
y[770]
y[774]
y[776]
y[778]
y[783]
y[784]
y[786]
y[790]
y[801]
y[810]
y[812]
y[817]
y[818]
y[823]
y[824]
y[828]
y[831]
y[835]
y[837]
y[841]
y[844]
y[847]
y[854]
y[855]
y[858]
y[859]
y[869]
y[870]
y[871]
y[872]
y[879]
y[880]
y[883]
y[885]
y[888]
y[891]
y[893]
y[894]
y[895]
y[897]
y[898]
y[901]
y[922]
y[923]
y[930]
y[932]
y[933]
y[935]
y[937]
y[941]
y[944]
y[945]
y[951]
y[952]
y[959]
y[960]
y[963]
y[964]
y[973]
y[974]
y[979]
y[980]
y[986]
y[987]
y[989]
y[990]
y[993]
y[995]
y[996]
y[998]
y[999]
x[0][17]
x[0][667]
x[0][932]
x[1][87]
x[1][666]
x[1][847]
x[1][896]
x[2][157]
x[2][620]
x[2][810]
x[2][823]
x[2][989]
x[3][164]
x[3][525]
x[3][873]
x[3][886]
x[4][203]
x[4][435]
x[5][84]
x[5][545]
x[6][216]
x[6][425]
x[7][220]
x[7][419]
x[8][293]
x[8][376]
x[8][773]
x[8][992]
x[9][372]
x[9][395]
x[9][411]
x[9][704]
x[10][47]
x[10][693]
x[10][908]
x[10][943]
x[11][449]
x[11][459]
x[11][462]
x[11][466]
x[11][499]
x[12][480]
x[12][505]
x[12][514]
x[12][524]
x[12][540]
x[12][572]
x[12][795]
x[12][809]
x[12][907]
x[13][526]
x[13][624]
x[13][647]
x[13][651]
x[13][659]
x[13][683]
x[13][713]
x[13][738]
x[13][761]
x[13][765]
x[13][768]
x[13][788]
x[13][790]
x[13][801]
x[13][807]
x[17][108]
x[17][527]
x[18][172]
x[18][488]
x[18][894]
x[25][111]
x[25][775]
x[27][318]
x[27][378]
x[27][804]
x[28][105]
x[28][665]
x[31][94]
x[31][551]
x[36][227]
x[36][451]
x[36][885]
x[39][256]
x[39][406]
x[39][755]
x[42][324]
x[42][591]
x[42][631]
x[42][729]
x[42][941]
x[42][978]
x[45][296]
x[45][469]
x[45][600]
x[45][635]
x[45][926]
x[52][195]
x[52][594]
x[52][707]
x[53][98]
x[53][925]
x[54][266]
x[54][393]
x[54][844]
x[55][242]
x[55][394]
x[58][251]
x[58][432]
x[58][812]
x[58][975]
x[62][146]
x[62][487]
x[66][64]
x[66][584]
x[66][985]
x[69][275]
x[69][366]
x[70][199]
x[70][528]
x[70][629]
x[76][250]
x[76][552]
x[76][660]
x[76][692]
x[76][841]
x[77][205]
x[77][824]
x[77][872]
x[79][228]
x[79][417]
x[81][307]
x[81][337]
x[81][902]
x[83][196]
x[83][678]
x[83][727]
x[84][20]
x[84][746]
x[84][843]
x[86][243]
x[86][410]
x[86][836]
x[89][259]
x[89][385]
x[90][279]
x[90][388]
x[90][791]
x[90][984]
x[99][310]
x[99][473]
x[99][708]
x[99][718]
x[99][734]
x[99][771]
x[99][914]
x[102][149]
x[102][639]
x[102][676]
x[109][280]
x[109][450]
x[109][601]
x[109][706]
x[112][240]
x[112][400]
x[119][231]
x[119][404]
x[125][177]
x[125][501]
x[125][797]
x[128][214]
x[128][430]
x[134][181]
x[134][630]
x[134][641]
x[137][160]
x[137][614]
x[137][779]
x[143][2]
x[143][720]
x[145][161]
x[145][479]
x[148][189]
x[148][495]
x[148][837]
x[148][851]
x[150][298]
x[150][334]
x[153][14]
x[153][767]
x[153][822]
x[155][179]
x[155][457]
x[158][167]
x[158][496]
x[159][255]
x[159][381]
x[166][59]
x[166][695]
x[166][865]
x[166][956]
x[167][309]
x[167][342]
x[167][904]
x[170][100]
x[170][564]
x[170][910]
x[174][346]
x[174][389]
x[174][426]
x[175][326]
x[175][437]
x[175][567]
x[175][637]
x[175][928]
x[176][223]
x[176][580]
x[176][598]
x[176][858]
x[180][165]
x[180][664]
x[180][681]
x[180][884]
x[184][96]
x[184][588]
x[185][169]
x[185][468]
x[186][345]
x[186][472]
x[186][696]
x[186][888]
x[188][110]
x[188][642]
x[188][805]
x[188][901]
x[191][70]
x[191][603]
x[193][188]
x[193][446]
x[194][129]
x[194][534]
x[195][83]
x[195][542]
x[196][168]
x[196][610]
x[196][772]
x[196][815]
x[198][34]
x[198][749]
x[198][879]
x[198][912]
x[200][143]
x[200][951]
x[204][112]
x[204][857]
x[204][906]
x[204][980]
x[206][206]
x[206][438]
x[209][132]
x[209][500]
x[211][357]
x[211][465]
x[211][518]
x[211][604]
x[211][615]
x[214][138]
x[214][622]
x[214][929]
x[215][176]
x[215][485]
x[215][986]
x[220][26]
x[220][710]
x[220][828]
x[221][294]
x[221][369]
x[221][753]
x[223][120]
x[223][589]
x[229][204]
x[229][557]
x[229][762]
x[231][174]
x[231][482]
x[231][911]
x[232][300]
x[232][339]
x[232][988]
x[239][36]
x[239][747]
x[240][58]
x[240][728]
x[240][743]
x[243][170]
x[243][467]
x[244][125]
x[244][523]
x[245][153]
x[245][684]
x[245][702]
x[245][825]
x[245][997]
x[248][198]
x[248][439]
x[249][155]
x[249][476]
x[250][12]
x[250][648]
x[252][287]
x[252][373]
x[252][893]
x[253][53]
x[253][835]
x[253][913]
x[253][934]
x[253][942]
x[253][944]
x[257][140]
x[257][498]
x[258][63]
x[258][561]
x[260][114]
x[260][903]
x[261][89]
x[261][536]
x[264][184]
x[264][447]
x[265][72]
x[265][611]
x[265][867]
x[281][295]
x[281][443]
x[281][636]
x[281][712]
x[281][946]
x[281][982]
x[282][144]
x[282][497]
x[284][133]
x[284][493]
x[285][262]
x[285][380]
x[286][163]
x[286][577]
x[286][870]
x[287][9]
x[287][722]
x[287][778]
x[288][32]
x[288][754]
x[288][814]
x[288][852]
x[289][71]
x[289][662]
x[289][892]
x[298][244]
x[298][408]
x[298][916]
x[301][13]
x[301][733]
x[301][739]
x[302][69]
x[304][139]
x[304][644]
x[304][663]
x[310][308]
x[310][335]
x[312][21]
x[312][714]
x[312][759]
x[316][8]
x[316][736]
x[316][838]
x[317][137]
x[317][494]
x[323][148]
x[323][484]
x[324][258]
x[324][387]
x[325][46]
x[325][687]
x[326][55]
x[326][780]
x[326][869]
x[327][50]
x[327][571]
x[332][315]
x[332][338]
x[332][793]
x[332][883]
x[332][940]
x[333][79]
x[333][550]
x[335][107]
x[335][608]
x[335][937]
x[339][305]
x[339][502]
x[339][522]
x[339][578]
x[341][284]
x[341][355]
x[342][166]
x[342][470]
x[345][367]
x[345][516]
x[345][556]
x[345][626]
x[345][632]
x[345][672]
x[346][141]
x[346][490]
x[348][121]
x[348][613]
x[348][725]
x[350][213]
x[350][422]
x[356][210]
x[356][638]
x[356][675]
x[356][919]
x[356][952]
x[356][960]
x[356][973]
x[358][68]
x[358][694]
x[358][862]
x[360][135]
x[360][786]
x[360][917]
x[365][325]
x[365][331]
x[365][967]
x[369][320]
x[369][352]
x[369][782]
x[369][887]
x[370][285]
x[370][379]
x[370][740]
x[373][361]
x[373][362]
x[373][512]
x[373][640]
x[376][304]
x[376][356]
x[376][830]
x[376][864]
x[380][187]
x[380][621]
x[380][652]
x[383][85]
x[383][705]
x[383][741]
x[384][253]
x[384][383]
x[387][277]
x[387][368]
x[390][104]
x[390][555]
x[391][265]
x[391][547]
x[391][607]
x[391][900]
x[393][29]
x[396][91]
x[396][537]
x[398][150]
x[398][481]
x[403][232]
x[403][427]
x[403][802]
x[406][264]
x[406][377]
x[407][145]
x[407][602]
x[413][313]
x[413][549]
x[413][583]
x[413][646]
x[413][661]
x[413][972]
x[416][134]
x[416][492]
x[418][175]
x[418][582]
x[418][717]
x[418][955]
x[421][252]
x[421][386]
x[428][162]
x[428][475]
x[431][222]
x[431][428]
x[431][874]
x[432][80]
x[432][543]
x[435][78]
x[435][560]
x[438][314]
x[438][336]
x[438][756]
x[438][827]
x[443][273]
x[443][477]
x[443][486]
x[453][249]
x[453][399]
x[456][15]
x[456][737]
x[456][861]
x[466][159]
x[466][474]
x[467][283]
x[467][358]
x[467][974]
x[468][319]
x[468][341]
x[468][685]
x[469][123]
x[469][587]
x[470][122]
x[470][563]
x[470][905]
x[473][289]
x[473][375]
x[473][918]
x[479][158]
x[479][478]
x[481][28]
x[481][719]
x[482][33]
x[482][623]
x[489][201]
x[489][441]
x[494][130]
x[494][840]
x[498][86]
x[498][548]
x[502][39]
x[502][671]
x[502][832]
x[504][173]
x[504][520]
x[504][785]
x[505][281]
x[505][359]
x[509][194]
x[509][464]
x[509][933]
x[513][302]
x[513][413]
x[513][627]
x[513][820]
x[513][897]
x[514][192]
x[514][445]
x[514][991]
x[516][93]
x[516][716]
x[516][764]
x[516][931]
x[523][62]
x[523][562]
x[525][106]
x[525][816]
x[526][31]
x[526][657]
x[526][938]
x[529][117]
x[529][532]
x[530][147]
x[530][508]
x[530][963]
x[532][329]
x[532][503]
x[532][609]
x[540][3]
x[540][777]
x[540][819]
x[540][999]
x[553][113]
x[553][612]
x[556][286]
x[556][405]
x[556][698]
x[557][312]
x[557][340]
x[557][898]
x[557][924]
x[558][10]
x[558][724]
x[558][877]
x[558][959]
x[562][236]
x[562][409]
x[563][0]
x[563][715]
x[567][76]
x[567][565]
x[570][77]
x[570][806]
x[576][208]
x[576][658]
x[576][688]
x[576][863]
x[579][103]
x[579][579]
x[584][4]
x[584][789]
x[584][950]
x[585][109]
x[585][617]
x[585][922]
x[588][48]
x[588][669]
x[588][880]
x[590][257]
x[590][391]
x[590][949]
x[593][56]
x[593][748]
x[595][24]
x[595][783]
x[595][968]
x[605][254]
x[605][382]
x[610][327]
x[610][330]
x[613][52]
x[613][570]
x[615][65]
x[615][752]
x[615][781]
x[615][799]
x[619][311]
x[619][348]
x[619][798]
x[619][939]
x[625][5]
x[625][839]
x[626][316]
x[626][344]
x[628][292]
x[628][349]
x[631][128]
x[631][593]
x[633][7]
x[633][711]
x[636][45]
x[636][596]
x[637][186]
x[637][586]
x[637][842]
x[638][75]
x[638][633]
x[639][197]
x[639][434]
x[642][131]
x[642][655]
x[642][831]
x[642][878]
x[644][221]
x[644][429]
x[646][99]
x[646][538]
x[649][152]
x[649][691]
x[649][697]
x[649][935]
x[652][193]
x[652][606]
x[652][679]
x[652][964]
x[653][127]
x[653][859]
x[653][994]
x[655][248]
x[655][392]
x[656][246]
x[656][455]
x[656][690]
x[656][921]
x[671][40]
x[671][766]
x[671][817]
x[672][19]
x[672][656]
x[673][74]
x[673][735]
x[675][60]
x[675][670]
x[676][81]
x[676][654]
x[676][826]
x[677][218]
x[677][442]
x[677][800]
x[678][291]
x[678][351]
x[679][233]
x[679][398]
x[680][37]
x[680][703]
x[682][95]
x[682][531]
x[685][301]
x[685][401]
x[685][677]
x[685][774]
x[685][954]
x[686][171]
x[686][471]
x[687][328]
x[687][504]
x[687][558]
x[687][573]
x[687][699]
x[688][190]
x[688][574]
x[688][595]
x[689][297]
x[689][416]
x[689][686]
x[689][744]
x[692][25]
x[692][811]
x[693][97]
x[693][553]
x[695][61]
x[695][569]
x[697][237]
x[697][396]
x[708][212]
x[708][423]
x[713][303]
x[713][421]
x[713][628]
x[714][234]
x[714][418]
x[724][230]
x[724][402]
x[726][1]
x[726][981]
x[730][44]
x[730][850]
x[730][891]
x[732][241]
x[732][414]
x[732][889]
x[738][272]
x[738][363]
x[739][154]
x[739][544]
x[739][750]
x[742][35]
x[742][709]
x[745][49]
x[745][853]
x[745][876]
x[745][927]
x[745][977]
x[745][996]
x[750][178]
x[750][463]
x[751][322]
x[751][515]
x[751][625]
x[751][751]
x[751][769]
x[751][915]
x[752][270]
x[752][460]
x[752][539]
x[754][92]
x[754][731]
x[754][860]
x[755][260]
x[755][436]
x[755][966]
x[756][268]
x[756][384]
x[760][124]
x[760][509]
x[765][191]
x[765][541]
x[765][653]
x[767][185]
x[767][454]
x[770][217]
x[770][433]
x[770][930]
x[774][51]
x[774][599]
x[774][990]
x[776][269]
x[776][370]
x[778][247]
x[778][535]
x[778][645]
x[778][796]
x[783][66]
x[783][568]
x[783][1000]
x[783][1001]
x[784][57]
x[784][682]
x[786][263]
x[786][415]
x[786][757]
x[790][54]
x[790][770]
x[790][829]
x[801][235]
x[801][519]
x[801][674]
x[801][979]
x[810][321]
x[810][848]
x[812][183]
x[812][448]
x[817][101]
x[817][533]
x[818][267]
x[818][374]
x[823][282]
x[823][364]
x[823][868]
x[824][276]
x[824][354]
x[828][290]
x[828][353]
x[831][271]
x[831][371]
x[835][41]
x[835][760]
x[835][821]
x[835][987]
x[837][323]
x[837][343]
x[837][855]
x[841][229]
x[841][407]
x[844][238]
x[844][403]
x[847][180]
x[847][461]
x[854][182]
x[854][456]
x[855][27]
x[855][649]
x[858][73]
x[859][22]
x[859][689]
x[869][67]
x[869][616]
x[870][261]
x[870][566]
x[870][643]
x[870][700]
x[870][923]
x[870][947]
x[870][961]
x[871][245]
x[871][390]
x[872][38]
x[872][833]
x[872][856]
x[872][969]
x[879][16]
x[879][763]
x[879][818]
x[880][11]
x[880][792]
x[880][871]
x[880][953]
x[883][18]
x[883][726]
x[885][224]
x[885][458]
x[888][136]
x[888][701]
x[888][723]
x[888][834]
x[891][102]
x[891][732]
x[891][866]
x[893][299]
x[893][530]
x[893][590]
x[893][618]
x[894][225]
x[894][420]
x[894][895]
x[895][215]
x[895][680]
x[895][794]
x[897][211]
x[897][424]
x[898][118]
x[898][529]
x[901][332]
x[901][511]
x[901][513]
x[901][585]
x[901][619]
x[922][209]
x[922][440]
x[923][306]
x[923][506]
x[923][575]
x[923][787]
x[923][813]
x[930][207]
x[930][444]
x[930][976]
x[932][317]
x[932][507]
x[932][592]
x[932][742]
x[932][745]
x[932][808]
x[932][849]
x[932][890]
x[932][971]
x[933][274]
x[933][360]
x[935][347]
x[935][350]
x[935][521]
x[935][957]
x[935][993]
x[937][23]
x[937][721]
x[937][882]
x[941][42]
x[941][784]
x[941][948]
x[941][965]
x[944][200]
x[944][483]
x[944][803]
x[945][115]
x[945][517]
x[951][88]
x[951][554]
x[952][142]
x[952][489]
x[959][126]
x[959][576]
x[959][881]
x[959][936]
x[960][226]
x[960][412]
x[963][239]
x[963][397]
x[964][119]
x[964][510]
x[973][333]
x[973][559]
x[973][581]
x[973][634]
x[973][776]
x[973][875]
x[973][899]
x[973][958]
x[974][202]
x[974][452]
x[974][970]
x[979][6]
x[979][650]
x[980][278]
x[980][365]
x[980][995]
x[986][156]
x[986][546]
x[986][845]
x[987][151]
x[987][730]
x[987][945]
x[989][90]
x[989][668]
x[989][920]
x[989][962]
x[989][983]
x[990][82]
x[990][673]
x[990][758]
x[993][288]
x[993][453]
x[993][491]
x[995][116]
x[995][846]
x[995][854]
x[995][909]
x[996][30]
x[996][605]
x[996][998]
x[998][43]
x[998][597]
x[999][219]
x[999][431]
Obj: 342.0
